120148
117879
121131
120804
122319
122024
119127
120568
121586
120717
218428
221202
217542
223560
218966
220530
219989
218215
216976
219719
295828
308086
299796
306480
300342
302571
301339
306454
302828
299910
